
Gurobi 9.5.1 (linux64) logging started Tue 16 Aug 2022 05:22:32 PM MST

Set parameter LogFile to value "/home/local/ASUAD/kmajd1/NNRepLayer_v2/demos/walking_example/global_constraint_upper_10/repair_net/logs/opt_log_multi_38.log"
Gurobi Optimizer version 9.5.1 build v9.5.1rc2 (linux64)
Thread count: 48 physical cores, 96 logical processors, using up to 45 threads
Optimize a model with 16863 rows, 10742 columns and 143807 nonzeros
Model fingerprint: 0x5cb6f7ee
Model has 149 quadratic objective terms
Variable types: 5974 continuous, 4768 integer (4768 binary)
Coefficient statistics:
  Matrix range     [9e-04, 3e+02]
  Objective range  [1e-02, 1e+00]
  QObjective range [1e-02, 1e-02]
  Bounds range     [1e+00, 2e+03]
  RHS range        [2e-04, 3e+02]

Concurrent MIP optimizer: 3 concurrent instances (15 threads per instance)

Found heuristic solution: objective 190.9314959
Presolve removed 682 rows and 192 columns
Presolve time: 0.27s
Presolved: 16181 rows, 10550 columns, 142741 nonzeros
Presolved model has 149 quadratic objective terms
Variable types: 5782 continuous, 4768 integer (4768 binary)
Root relaxation presolve removed 4768 rows and 4768 columns
Root relaxation presolved: 11413 rows, 5782 columns, 128437 nonzeros
Root relaxation presolved model has 149 quadratic objective terms


Root relaxation: objective 2.939254e+01, 6763 iterations, 0.39 seconds (0.73 work units)

    Nodes    |    Current Node    |     Objective Bounds      |     Work
 Expl Unexpl |  Obj  Depth IntInf | Incumbent    BestBd   Gap | It/Node Time

     0     0      -    -    -      190.93150   29.39254  84.6%     -    0s
     0     0      -    -    -      183.06858   29.39254  83.9%     -    5s
     0     2      -    -    -      179.90450   29.39254  83.7%     -   10s
   251   267      -    -    -      174.63363   29.39254  83.2%     -   29s
   266   283      -    -    -       62.52943   29.39254  53.0%     -   32s
   339   355      -    -    -       44.84414   29.39254  34.5%     -   56s
   784   815      -    -    -       44.84414   29.39254  34.5%     -   62s
  1826  1842      -    -    -       44.84414   29.39254  34.5%     -   80s
  4723  4945      -    -    -       44.84414   29.39254  34.5%     -   85s
  5414  5642      -    -    -       39.33747   29.39254  25.3%     -   92s
  7214  7594      -    -    -       39.33747   29.39254  25.3%     -   95s
 10088 10089      -    -    -       39.07200   29.39254  24.8%     -  116s
 10090 10090      -    -    -       38.85103   29.39254  24.3%     -  120s
 10092 10092      -    -    -       38.85103   29.39254  24.3%     -  132s
 10167  9173      -    -    -       38.77761   29.39254  24.2%     -  153s
 10240  7532      -    -    -       35.47868   29.39254  17.2%     -  170s
 11252  7483      -    -    -       35.46308   29.39254  17.1%     -  186s
 12428  8074      -    -    -       35.46308   29.39254  17.1%     -  190s
 13576  8814      -    -    -       35.46308   29.39254  17.1%     -  196s
 15900 10467      -    -    -       33.84588   29.39254  13.2%     -  200s
 16886 11118      -    -    -       33.84588   29.39254  13.2%     -  206s
 17346 11463      -    -    -       33.84588   29.39254  13.2%     -  225s
 19561 13135      -    -    -       33.84588   29.39254  13.2%     -  231s
 20023 13822      -    -    -       33.84588   29.39254  13.2%     -  235s
 23398 14860      -    -    -       33.84588   29.39254  13.2%     -  240s
 24548 15505      -    -    -       33.84588   29.39254  13.2%     -  245s
 25623 16199      -    -    -       33.04113   29.39254  11.0%     -  253s
 26015 16861      -    -    -       33.04113   29.39254  11.0%     -  255s
 28240 18932      -    -    -       32.99181   29.39254  10.9%     -  264s

Instance 2 was solved

Explored 32996 nodes (5043043 simplex iterations) in 265.20 seconds (612.98 work units)
Thread count was 15 (of 96 available processors)

Solution count 10: 32.9918 33.0084 33.0089 ... 35.4731 

Optimal solution found (tolerance 1.10e-01)
Best objective 3.299180913665e+01, best bound 2.939253565931e+01, gap 10.9096%
